/*********************************************
 * OPL 12.4 Data
 * Author: ybenzaid
 * Creation Date: 20 mars 2016 at 12:57:03
 *********************************************/
 //le nombre de jobs
 N=3;
 //le nombre de personnels
 K=2;
 //les competences
 r=[[1,1],[1,1],[1,1]];
 //E=[800,900,100];
 //L=[900,110,120];
 //e=[810,910];
 //l=[910,120];
// W=20;
//matrice de temps de trajet
 t=[[0,3.16,4.47,2.82],[3.16,0,3.16,5.09],[4.47,3.16,0,4.47],[2.82,5.09,4.47,0]];